p cnf 13 21
13 11 -7 0
13 9 -8 0
13 8 -2 0
13 -7 3 0
-13 7 1 0
13 5 -1 0
-12 11 7 0
12 -11 -6 0
12 -11 5 0
-12 9 1 0
-12 7 -3 0
-11 -10 8 0
11 -10 -2 0
11 9 8 0
10 -6 4 0
-9 -8 -5 0
-9 8 2 0
9 -8 -1 0
8 6 1 0
8 -2 1 0
-5 -2 1 0
